benchmarks/VRPTW/TSPTW/solution/n20w180.005.txt.solution
1 4 10 11 20 2 9 17 14 7 6 15 13 8 19 5 16 18 3 21 12 
193
